n = 23;
lu = [|-114, -109
      |-413, 356
      |-268, 448
      |-444, 500
      |-178, 350
      |-33, 308
      |-471, -116
      |-234, -74
      |-264, -86
      |267, 460
      |-31, 217
      |-467, -466
      |-275, 72
      |-440, 514
      |-514, 421
      |113, 124
      |338, 355
      |-414, -118
      |-125, -16
      |258, 347
      |-409, -210
      |-376, -326
      |-438, -272|];
